Distance between 1 and 4 is 122
p sp 5 20
a 1 2 128
a 1 3 353
a 1 4 122
a 1 5 358
a 2 1 212
a 2 3 667
a 2 4 612
a 2 5 134
a 3 1 209
a 3 2 285
a 3 4 153
a 3 5 781
a 4 1 573
a 4 2 324
a 4 3 129
a 4 5 294
a 5 1 816
a 5 2 252
a 5 3 157
a 5 4 892
